375 386 
390 401
405 416
420 431
435 426
450 461
465 476
480 491
495 506
510 521
525 536
540 551
555 566
570 581
585 596
600 611
615 626
645 656
675 686
705 716
735 746
765 776
795 806
825 836
855 866
885 896
915 926
945 956
960 971
975 986
990 1001
1005 1016
1020 1031
1035 1046
1050 1061
1065 1076
1080 1091
1095 1106
1110 1121
1125 1136
1140 1151
1155 1166
1170 1181
1185 1196
1200 1211
1215 1226
1245 1256
1275 1286
1305 1316
1335 1346
1365 1376
1395 1406
1425 1436
1455 1466
1485 1496